Cu
   1.00000000000000
     3.6148587988537768    0.0000000000000000    0.0000000000000000
     0.0000000000000000    3.6148587988537768    0.0000000000000000
     0.0000000000000000    0.0000000000000000   72.4154525833797607
   Cu
    60
Selective dynamics
Direct
  0.0000000000000000  0.0000000000000000  0.0000000000000000   T   T   T
  0.5000000000000000  0.5000000000000000  0.0000000000000000   T   T   T
  0.0000000000000000  0.5000000000000000  0.0249591673454750   T   T   T
  0.5000000000000000  0.0000000000000000  0.0249591673454750   T   T   T
  0.0000000000000000  0.0000000000000000  0.0499183346909501   T   T   T
  0.5000000000000000  0.5000000000000000  0.0499183346909501   T   T   T
  0.0000000000000000  0.5000000000000000  0.0748775020364251   T   T   T
  0.5000000000000000  0.0000000000000000  0.0748775020364251   T   T   T
  0.0000000000000000  0.0000000000000000  0.0998366693819002   T   T   T
  0.5000000000000000  0.5000000000000000  0.0998366693819002   T   T   T
  0.0000000000000000  0.5000000000000000  0.1247958367273752   T   T   T
  0.5000000000000000  0.0000000000000000  0.1247958367273752   T   T   T
  0.0000000000000000  0.0000000000000000  0.1497550040728503   T   T   T
  0.5000000000000000  0.5000000000000000  0.1497550040728503   T   T   T
  0.0000000000000000  0.5000000000000000  0.1747141714183253   T   T   T
  0.5000000000000000  0.0000000000000000  0.1747141714183253   T   T   T
  0.0000000000000000  0.0000000000000000  0.1996733387638004   T   T   T
  0.5000000000000000  0.5000000000000000  0.1996733387638004   T   T   T
  0.0000000000000000  0.5000000000000000  0.2246325061092754   T   T   T
  0.5000000000000000  0.0000000000000000  0.2246325061092754   T   T   T
  0.0000000000000000  0.0000000000000000  0.2495916734547504   F   F   F
  0.5000000000000000  0.5000000000000000  0.2495916734547504   F   F   F
  0.0000000000000000  0.5000000000000000  0.2745508408002255   F   F   F
  0.5000000000000000  0.0000000000000000  0.2745508408002255   F   F   F
  0.0000000000000000  0.0000000000000000  0.2995100081457005   F   F   F
  0.5000000000000000  0.5000000000000000  0.2995100081457005   F   F   F
  0.0000000000000000  0.5000000000000000  0.3244691754911755   F   F   F
  0.5000000000000000  0.0000000000000000  0.3244691754911755   F   F   F
  0.0000000000000000  0.0000000000000000  0.3494283428366506   F   F   F
  0.5000000000000000  0.5000000000000000  0.3494283428366506   F   F   F
  0.0000000000000000  0.5000000000000000  0.3743875101821256   F   F   F
  0.5000000000000000  0.0000000000000000  0.3743875101821256   F   F   F
  0.0000000000000000  0.0000000000000000  0.3993466775276007   F   F   F
  0.5000000000000000  0.5000000000000000  0.3993466775276007   F   F   F
  0.0000000000000000  0.5000000000000000  0.4243058448730757   F   F   F
  0.5000000000000000  0.0000000000000000  0.4243058448730757   F   F   F
  0.0000000000000000  0.0000000000000000  0.4492650122185508   F   F   F
  0.5000000000000000  0.5000000000000000  0.4492650122185508   F   F   F
  0.0000000000000000  0.5000000000000000  0.4742241795640258   F   F   F
  0.5000000000000000  0.0000000000000000  0.4742241795640258   F   F   F
  0.0000000000000000  0.0000000000000000  0.4991833469095009   T   T   T
  0.5000000000000000  0.5000000000000000  0.4991833469095009   T   T   T
  0.0000000000000000  0.5000000000000000  0.5241425142549759   T   T   T
  0.5000000000000000  0.0000000000000000  0.5241425142549759   T   T   T
  0.0000000000000000  0.0000000000000000  0.5491016816004509   T   T   T
  0.5000000000000000  0.5000000000000000  0.5491016816004509   T   T   T
  0.0000000000000000  0.5000000000000000  0.5740608489459260   T   T   T
  0.5000000000000000  0.0000000000000000  0.5740608489459260   T   T   T
  0.0000000000000000  0.0000000000000000  0.5990200162914010   T   T   T
  0.5000000000000000  0.5000000000000000  0.5990200162914010   T   T   T
  0.0000000000000000  0.5000000000000000  0.6239791836368760   T   T   T
  0.5000000000000000  0.0000000000000000  0.6239791836368760   T   T   T
  0.0000000000000000  0.0000000000000000  0.6489383509823512   T   T   T
  0.5000000000000000  0.5000000000000000  0.6489383509823512   T   T   T
  0.0000000000000000  0.5000000000000000  0.6738975183278262   T   T   T
  0.5000000000000000  0.0000000000000000  0.6738975183278262   T   T   T
  0.0000000000000000  0.0000000000000000  0.6988566856733012   T   T   T
  0.5000000000000000  0.5000000000000000  0.6988566856733012   T   T   T
  0.0000000000000000  0.5000000000000000  0.7238158530187763   T   T   T
  0.5000000000000000  0.0000000000000000  0.7238158530187763   T   T   T
