H Cu I
   1.00000000000000
     4.2395816000000002    0.0000000000000000    0.0000000000000000
     2.1200000000000001    3.6699999999999999    0.0000000000000000
     0.0000000000000000    0.0000000000000000   43.5582356168068259
   Cu   I
     9     9
Selective dynamics
Direct
  0.3333334090000000  0.3333334060000000  0.0198676738781301T   T   T
  0.6666667710000002  0.6666666820000000  0.0993383879005362T   T   T
  0.0000000000000000  0.0000000000000000  0.1788091033467797T   T   T
  0.3333334000000000  0.3333334000000001  0.2582797945877883F   F   F
  0.6666667999999999  0.6666666999999999  0.3377505328154292F   F   F
  0.0000000000000000  0.0000000000000000  0.4172212240564377T   T   T
  0.3333334000000000  0.3333334000000001  0.4966920049991991T   T   T
  0.6666667999999999  0.6666666999999999  0.5761627418030028T   T   T
  0.0000000000000000  0.0000000000000000  0.6556334344678486T   T   T
  0.0000000000000000  0.0000000000000000  0.0000000000000000T   T   T
  0.3333334090000000  0.3333334060000000  0.0794707040555447T   T   T
  0.6666667710000002  0.6666666820000000  0.1589413967203906T   T   T
  0.0000000000000000  0.0000000000000000  0.2384121321003568T   T   T
  0.3333334000000000  0.3333334000000001  0.3178828703279978F   F   F
  0.6666667999999999  0.6666666999999999  0.3973535188538860T   T   T
  0.0000000000000000  0.0000000000000000  0.4768242556576897T   T   T
  0.3333334000000000  0.3333334000000001  0.5562949483225355T   T   T
  0.6666667999999999  0.6666666999999999  0.6357657292652968T   T   T
